c Sudoku solution
p cnf 729 0
187 0
216 0
232 0
241 0
313 0
324 0
331 0
227 0
372 0
415 0
469 0
477 0
521 0
542 0
568 0
594 0
628 0
771 0
191 0
843 0
856 0
874 0
284 0
898 0
488 0
681 0
451 0
925 0
129 0
135 0
118 0
278 0
822 0
612 0
492 0
961 0
811 0
986 0
782 0
952 0
162 0
583 0
839 0
867 0
885 0
519 0
389 0
259 0
446 0
434 0
423 0
726 0
144 0
153 0
265 0
366 0
176 0
293 0
395 0
914 0
717 0
997 0
663 0
654 0
764 0
973 0
799 0
733 0
938 0
949 0
575 0
557 0
645 0
536 0
637 0
748 0
755 0
347 0
358 0
679 0
696 0
